HUN,8,6,258
2,61,0,6,4,40,5,29,1,56,3,90
5,45,0,51,3,8,1,86,4,25,2,28
2,40,3,36,5,84,4,20,1,19,0,48
2,6,0,16,3,19,1,42,4,63,5,99
0,97,4,63,5,43,3,1,1,45,2,53
1,49,0,49,5,55,4,61,3,6,2,39
5,26,4,27,2,97,3,89,0,33,1,6
2,69,5,6,1,90,0,35,3,11,4,26
